(declare-fun _substvar_237_ () (Array (Array (Array Bool Bool) (Array Bool Bool)) (Array (Array Bool Bool) Bool)))
(declare-fun _substvar_249_ () (Array (Array (Array Bool Bool) (Array Bool Bool)) (Array (Array Bool Bool) Bool)))
(declare-fun _substvar_289_ () (Array (Array (Array Bool Bool) (Array Bool Bool)) (Array (Array Bool Bool) Bool)))
(declare-fun _substvar_385_ () (Array Bool Bool))
(declare-fun _substvar_547_ () (Array Bool Bool))
(declare-fun _substvar_569_ () (Array (Array (Array Bool Bool) (Array Bool Bool)) (Array (Array Bool Bool) Bool)))
(declare-fun _substvar_600_ () (Array (Array (Array Bool Bool) (Array Bool Bool)) (Array (Array Bool Bool) Bool)))
(declare-fun _substvar_619_ () (Array (Array Bool Bool) (Array Bool Bool)))
(declare-fun _substvar_622_ () (Array Bool Bool))
(declare-const arr-3410093864546416904_3410093864546416904-0 (Array (Array Bool Bool) (Array Bool Bool)))
(declare-const arr-3410093864546416904_5084294929380604898-0 (Array (Array Bool Bool) Bool))
(assert (= _substvar_289_ _substvar_249_ _substvar_237_ (store _substvar_600_ arr-3410093864546416904_3410093864546416904-0 (store arr-3410093864546416904_5084294929380604898-0 _substvar_547_ true)) (store (store (store _substvar_569_ arr-3410093864546416904_3410093864546416904-0 (store arr-3410093864546416904_5084294929380604898-0 _substvar_385_ true)) _substvar_619_ arr-3410093864546416904_5084294929380604898-0) arr-3410093864546416904_3410093864546416904-0 (store arr-3410093864546416904_5084294929380604898-0 (select arr-3410093864546416904_3410093864546416904-0 _substvar_622_) true))))
(check-sat)
